db/data/1165743287882424254282713000611561.z3.out
sat
-------------------
1.932979001
